
        $ From http://www.csplib.org/Problems/prob009/data/helmut.pdf
        $ Problem number 5
        $ Sequence length : 22
        language ESSENCE' 1.0
        letting sizemaster be 147
        letting sizes be sequence(1,3,4,5,8,9,17,20,21,23,25,26,29,31,32,40,43,44,47,48,52,55)
        